28 29
22
3 3 8 4
3 4 11 25
3 5 14 1
6 3 22 26
3 7 25 3
3 8 18 3
3 9 14 20
3 10 18 11
11 3 17 0
3 16 25 10
3 17 3 6
3 21 11 4
3 23 0 0
3 4 7 0
4 4 10 0
4 5 3 1
4 8 17 21
4 13 14 7
4 23 21 3
5 6 1 23
5 9 6 7
5 13 6 16
